unsat
(define-fun f ((x0 (BitVec 64)) (x1 (BitVec 64))) (BitVec 64) (bvadd #b0000000000000000000000000000000000000000000000000000000000000001 (bvudiv x0 x1)))
(define-fun f ((x0 (BitVec 64)) (x1 (BitVec 64))) (BitVec 64) (bvadd #b0000000000000000000000000000000000000000000000000000000000000001 (bvudiv x0 x1)))
int-arith36.sl running time : 0 m 23.703694272 s
times : 23.703694272
